120
150
38
30
36
80
41
65
84
46
97
56
46
53
56
94
24
24
53
97
38
53
58
24
25
41
82
63
55
63
97
63
60
47
53
41
32
24
58
52
40
56
45
58
51
49
45
58
47
41
73
30
53
97
47
96
80
24
79
35
64
86
22
82
24
80
100
27
49
95
55
58
24
97
27
53
46
44
53
97
43
41
60
32
58
53
97
40
46
90
64
32
69
45
86
64
36
36
53
56
82
33
57
55
41
38
35
92
58
86
100
31
79
64
49
33
53
97
32
69
80
95
